************************************************************************
file with basedata            : mm13_.bas
initial value random generator: 1859685840
************************************************************************
projects                      :  1
jobs (incl. supersource/sink ):  12
horizon                       :  79
RESOURCES
  - renewable                 :  2   R
  - nonrenewable              :  2   N
  - doubly constrained        :  0   D
************************************************************************
PROJECT INFORMATION:
pronr.  #jobs rel.date duedate tardcost  MPM-Time
    1     10      0       13        3       13
************************************************************************
PRECEDENCE RELATIONS:
jobnr.    #modes  #successors   successors
   0        1          3           1   2   3
   1        3          1          10
   2        3          3           4   8   9
   3        3          3           5   8   9
   4        3          1           5
   5        3          2           6   7
   6        3          1          10
   7        3          1          10
   8        3          1          11
   9        3          1          11
  10        3          1          11
  11        1          0        
************************************************************************
REQUESTS/DURATIONS:
jobnr. mode duration  R 1  R 2  R 3  R 4  E(W 1)
------------------------------------------------------------------------
  0      1     0       0    0    0    0     0
  1      1     1       8    0    4    5    17
  2      1     2       9    0    9    8    52
  3      1     1       7    0    7    9    23
  4      1     1       0    4    6    7    17
  5      1     3       5    0    4   10    57
  6      1     4       6    0   10    7    92
  7      1     1       4    0   10    9    23
  8      1     6      10    0    9    8    162
  9      1     4       0   10    8    4    88
 10      1     3       7    0    7    7    63
 11      1     0       0    0    0    0     0
************************************************************************
RESOURCEAVAILABILITIES:
  R 1
   122
************************************************************************
RESOURCE LIMITS:
jobnr.  l(R 1)  u(R 1)
------------------------------------------------------------------------
  0        0       0
  1        9      17
  2       14      26
  3       13      23
  4        9      17
  5       10      19
  6       12      23
  7       12      23
  8       14      27
  9       11      22
 10       12      21
 11        0       0
************************************************************************
SCENARIOS:
------------------------------------------------------------------------
RESOURCE k = 1
s = 1: (0, 15, 33, 31, 31, 91, 66, 21, 217, 138, 65, 0)
s = 2: (0, 18, 64, 14, 15, 47, 95, 22, 147, 146, 51, 0)
s = 3: (0, 18, 58, 33, 19, 76, 105, 21, 164, 54, 51, 0)
s = 4: (0, 22, 54, 19, 19, 60, 135, 23, 184, 91, 44, 0)
s = 5: (0, 15, 74, 16, 12, 44, 56, 21, 162, 112, 83, 0)
s = 6: (0, 16, 90, 26, 15, 76, 100, 16, 213, 97, 67, 0)
s = 7: (0, 11, 38, 16, 21, 52, 165, 19, 231, 56, 41, 0)
s = 8: (0, 17, 47, 25, 15, 33, 63, 21, 150, 84, 92, 0)
s = 9: (0, 18, 33, 36, 15, 34, 80, 24, 174, 50, 82, 0)
s = 10: (0, 13, 59, 23, 20, 75, 93, 16, 176, 133, 53, 0)
s = 11: (0, 16, 52, 21, 21, 49, 65, 17, 204, 117, 94, 0)
s = 12: (0, 26, 68, 20, 12, 59, 87, 22, 244, 85, 77, 0)
s = 13: (0, 28, 59, 35, 18, 72, 80, 22, 107, 58, 49, 0)
s = 14: (0, 20, 63, 32, 15, 35, 96, 25, 109, 84, 77, 0)
s = 15: (0, 21, 38, 21, 22, 86, 84, 28, 200, 58, 62, 0)
s = 16: (0, 25, 76, 28, 19, 62, 112, 17, 147, 127, 93, 0)
s = 17: (0, 23, 38, 25, 11, 48, 116, 15, 166, 106, 56, 0)
s = 18: (0, 19, 50, 25, 14, 57, 134, 31, 113, 124, 65, 0)
s = 19: (0, 12, 34, 24, 14, 51, 112, 41, 146, 83, 50, 0)
s = 20: (0, 20, 39, 18, 14, 33, 65, 26, 211, 122, 79, 0)
s = 21: (0, 11, 38, 23, 15, 62, 109, 13, 101, 80, 68, 0)
s = 22: (0, 14, 41, 31, 21, 47, 97, 19, 248, 120, 75, 0)
s = 23: (0, 15, 47, 23, 21, 68, 90, 18, 92, 70, 48, 0)
s = 24: (0, 23, 85, 18, 24, 74, 86, 34, 255, 98, 75, 0)
s = 25: (0, 23, 53, 30, 17, 52, 70, 26, 197, 70, 43, 0)
s = 26: (0, 22, 84, 24, 13, 66, 58, 22, 166, 94, 46, 0)
s = 27: (0, 27, 60, 15, 17, 43, 86, 26, 144, 84, 56, 0)
s = 28: (0, 14, 44, 20, 22, 63, 81, 23, 213, 93, 40, 0)
s = 29: (0, 28, 66, 19, 29, 45, 108, 25, 103, 57, 89, 0)
s = 30: (0, 26, 76, 29, 19, 73, 145, 17, 266, 64, 57, 0)
s = 31: (0, 16, 65, 25, 11, 59, 72, 18, 198, 100, 57, 0)
s = 32: (0, 22, 74, 27, 13, 60, 76, 20, 129, 58, 73, 0)
s = 33: (0, 10, 58, 22, 12, 46, 91, 28, 178, 88, 42, 0)
s = 34: (0, 27, 49, 19, 13, 88, 80, 23, 180, 114, 73, 0)
s = 35: (0, 11, 59, 26, 19, 49, 63, 23, 220, 83, 49, 0)
s = 36: (0, 11, 61, 26, 15, 54, 80, 22, 262, 60, 61, 0)
s = 37: (0, 13, 51, 16, 22, 70, 81, 18, 157, 122, 87, 0)
s = 38: (0, 19, 62, 30, 17, 76, 53, 17, 177, 59, 42, 0)
s = 39: (0, 25, 54, 19, 12, 36, 64, 17, 185, 97, 71, 0)
s = 40: (0, 15, 46, 22, 13, 74, 80, 19, 105, 72, 53, 0)
s = 41: (0, 16, 47, 22, 20, 85, 131, 24, 157, 79, 49, 0)
s = 42: (0, 22, 60, 20, 12, 51, 66, 19, 250, 70, 48, 0)
s = 43: (0, 12, 60, 23, 31, 62, 76, 21, 237, 77, 84, 0)
s = 44: (0, 17, 45, 25, 12, 55, 115, 21, 206, 67, 64, 0)
s = 45: (0, 18, 33, 21, 19, 45, 127, 25, 118, 108, 63, 0)
s = 46: (0, 16, 39, 27, 15, 43, 57, 23, 151, 93, 57, 0)
s = 47: (0, 25, 60, 25, 24, 50, 104, 18, 164, 56, 50, 0)
s = 48: (0, 18, 35, 29, 13, 61, 127, 22, 177, 73, 81, 0)
s = 49: (0, 17, 54, 24, 12, 64, 73, 28, 172, 80, 44, 0)
s = 50: (0, 18, 49, 19, 23, 75, 81, 30, 128, 56, 72, 0)
s = 51: (0, 23, 91, 27, 21, 52, 96, 21, 171, 62, 91, 0)
s = 52: (0, 16, 55, 18, 20, 52, 85, 25, 122, 74, 50, 0)
s = 53: (0, 17, 34, 44, 14, 92, 90, 20, 185, 114, 77, 0)
s = 54: (0, 15, 51, 33, 23, 45, 79, 22, 199, 76, 55, 0)
s = 55: (0, 12, 61, 20, 16, 30, 85, 20, 87, 108, 83, 0)
s = 56: (0, 11, 33, 34, 15, 70, 67, 22, 123, 124, 61, 0)
s = 57: (0, 15, 57, 38, 20, 40, 128, 38, 118, 85, 67, 0)
s = 58: (0, 20, 59, 24, 20, 102, 92, 21, 113, 80, 63, 0)
s = 59: (0, 15, 37, 15, 12, 58, 66, 16, 123, 107, 38, 0)
s = 60: (0, 28, 62, 20, 11, 40, 98, 14, 157, 51, 63, 0)
s = 61: (0, 13, 45, 32, 15, 35, 67, 27, 177, 52, 80, 0)
s = 62: (0, 14, 72, 18, 14, 99, 119, 21, 160, 54, 66, 0)
s = 63: (0, 16, 57, 26, 27, 107, 70, 27, 119, 101, 51, 0)
s = 64: (0, 21, 45, 18, 16, 37, 101, 28, 210, 96, 44, 0)
s = 65: (0, 16, 67, 24, 21, 37, 123, 17, 99, 69, 68, 0)
s = 66: (0, 14, 79, 26, 21, 57, 79, 36, 164, 81, 82, 0)
s = 67: (0, 24, 82, 31, 20, 83, 54, 20, 111, 52, 39, 0)
s = 68: (0, 17, 40, 37, 14, 57, 108, 22, 182, 95, 50, 0)
s = 69: (0, 14, 44, 33, 15, 90, 89, 23, 194, 85, 35, 0)
s = 70: (0, 25, 77, 21, 24, 54, 76, 21, 137, 71, 48, 0)
s = 71: (0, 19, 47, 34, 25, 81, 132, 21, 176, 85, 54, 0)
s = 72: (0, 19, 66, 19, 14, 48, 64, 17, 157, 91, 116, 0)
s = 73: (0, 13, 70, 21, 13, 60, 73, 38, 97, 61, 87, 0)
s = 74: (0, 12, 53, 28, 19, 54, 85, 39, 234, 97, 45, 0)
s = 75: (0, 12, 53, 18, 22, 87, 123, 18, 188, 71, 108, 0)
s = 76: (0, 16, 37, 14, 11, 54, 88, 23, 182, 97, 50, 0)
s = 77: (0, 16, 59, 36, 11, 69, 99, 21, 130, 129, 41, 0)
s = 78: (0, 13, 38, 35, 21, 68, 112, 31, 173, 72, 63, 0)
s = 79: (0, 17, 39, 28, 19, 49, 126, 31, 199, 55, 75, 0)
s = 80: (0, 15, 56, 30, 11, 59, 119, 33, 186, 50, 46, 0)
s = 81: (0, 15, 52, 15, 20, 50, 82, 20, 120, 62, 36, 0)
s = 82: (0, 16, 41, 17, 14, 49, 97, 15, 216, 96, 96, 0)
s = 83: (0, 27, 38, 28, 20, 72, 68, 14, 110, 95, 65, 0)
s = 84: (0, 15, 55, 25, 15, 43, 113, 19, 137, 137, 44, 0)
s = 85: (0, 18, 53, 19, 19, 45, 77, 31, 185, 61, 83, 0)
s = 86: (0, 12, 33, 25, 22, 31, 99, 20, 124, 92, 70, 0)
s = 87: (0, 21, 40, 25, 14, 50, 64, 20, 136, 86, 51, 0)
s = 88: (0, 15, 28, 41, 16, 48, 62, 26, 174, 78, 65, 0)
s = 89: (0, 23, 58, 23, 14, 72, 62, 15, 168, 68, 43, 0)
s = 90: (0, 17, 52, 22, 16, 38, 122, 14, 241, 76, 60, 0)
s = 91: (0, 28, 67, 23, 17, 36, 91, 33, 115, 113, 97, 0)
s = 92: (0, 22, 70, 17, 17, 42, 116, 22, 151, 90, 84, 0)
s = 93: (0, 14, 29, 41, 18, 72, 61, 23, 158, 101, 37, 0)
s = 94: (0, 20, 76, 32, 12, 54, 75, 22, 157, 66, 70, 0)
s = 95: (0, 19, 34, 25, 10, 49, 83, 27, 119, 47, 57, 0)
s = 96: (0, 24, 30, 27, 15, 54, 101, 21, 130, 77, 50, 0)
s = 97: (0, 18, 63, 23, 11, 33, 130, 28, 269, 94, 58, 0)
s = 98: (0, 31, 71, 30, 16, 55, 128, 17, 184, 64, 56, 0)
s = 99: (0, 16, 43, 22, 10, 43, 54, 24, 113, 85, 81, 0)
s = 100: (0, 12, 66, 27, 13, 46, 63, 18, 178, 69, 46, 0)
s = 101: (0, 26, 64, 17, 20, 53, 59, 34, 116, 87, 50, 0)
s = 102: (0, 15, 56, 25, 14, 72, 97, 19, 222, 88, 61, 0)
s = 103: (0, 15, 75, 13, 28, 86, 71, 19, 105, 59, 85, 0)
s = 104: (0, 19, 61, 17, 19, 89, 59, 27, 145, 96, 56, 0)
s = 105: (0, 11, 52, 15, 21, 45, 88, 30, 215, 72, 80, 0)
s = 106: (0, 21, 51, 19, 22, 71, 118, 18, 233, 66, 47, 0)
s = 107: (0, 19, 53, 19, 24, 72, 132, 24, 251, 93, 53, 0)
s = 108: (0, 27, 39, 21, 20, 35, 75, 28, 152, 69, 41, 0)
s = 109: (0, 16, 49, 23, 13, 101, 103, 44, 129, 57, 63, 0)
s = 110: (0, 27, 45, 18, 13, 52, 59, 23, 151, 112, 83, 0)
s = 111: (0, 14, 31, 17, 16, 39, 74, 29, 121, 87, 82, 0)
s = 112: (0, 25, 46, 19, 24, 50, 106, 22, 147, 157, 35, 0)
s = 113: (0, 18, 67, 21, 18, 52, 85, 22, 120, 108, 86, 0)
s = 114: (0, 16, 63, 25, 13, 97, 79, 27, 170, 60, 59, 0)
s = 115: (0, 17, 83, 24, 14, 93, 72, 27, 165, 58, 46, 0)
s = 116: (0, 16, 72, 31, 19, 63, 63, 16, 251, 116, 46, 0)
s = 117: (0, 18, 51, 21, 17, 57, 85, 15, 199, 49, 103, 0)
s = 118: (0, 15, 55, 26, 21, 101, 68, 24, 114, 93, 63, 0)
s = 119: (0, 17, 63, 28, 19, 53, 96, 30, 108, 123, 55, 0)
s = 120: (0, 24, 70, 21, 16, 46, 77, 20, 164, 60, 58, 0)
s = 121: (0, 13, 55, 36, 12, 42, 115, 35, 144, 91, 90, 0)
s = 122: (0, 14, 44, 14, 18, 103, 76, 20, 177, 112, 54, 0)
s = 123: (0, 26, 79, 24, 27, 40, 94, 20, 211, 76, 59, 0)
s = 124: (0, 19, 32, 28, 28, 68, 62, 33, 113, 59, 77, 0)
s = 125: (0, 14, 53, 19, 21, 64, 85, 16, 158, 95, 59, 0)
s = 126: (0, 23, 77, 15, 15, 76, 88, 20, 137, 115, 61, 0)
s = 127: (0, 17, 32, 17, 10, 51, 59, 24, 210, 92, 54, 0)
s = 128: (0, 21, 65, 20, 9, 64, 88, 32, 162, 147, 91, 0)
s = 129: (0, 12, 47, 19, 23, 46, 84, 23, 143, 68, 49, 0)
s = 130: (0, 19, 43, 32, 20, 57, 130, 19, 110, 92, 66, 0)
s = 131: (0, 26, 64, 22, 14, 52, 117, 29, 135, 111, 43, 0)
s = 132: (0, 15, 46, 32, 14, 65, 149, 31, 86, 107, 39, 0)
s = 133: (0, 12, 32, 28, 11, 32, 92, 28, 179, 76, 56, 0)
s = 134: (0, 14, 73, 20, 13, 70, 87, 13, 172, 95, 55, 0)
s = 135: (0, 18, 42, 30, 15, 50, 113, 30, 102, 80, 70, 0)
s = 136: (0, 13, 94, 29, 14, 46, 95, 28, 93, 95, 77, 0)
s = 137: (0, 13, 33, 32, 16, 54, 63, 19, 113, 87, 40, 0)
s = 138: (0, 20, 41, 15, 18, 62, 85, 21, 146, 125, 41, 0)
s = 139: (0, 14, 36, 21, 19, 85, 54, 37, 173, 66, 73, 0)
s = 140: (0, 10, 27, 26, 16, 69, 157, 19, 133, 73, 111, 0)
s = 141: (0, 17, 61, 15, 17, 47, 123, 25, 211, 90, 61, 0)
s = 142: (0, 17, 33, 25, 29, 88, 85, 28, 149, 98, 35, 0)
s = 143: (0, 19, 41, 13, 15, 63, 77, 26, 255, 118, 99, 0)
s = 144: (0, 17, 65, 20, 15, 53, 128, 35, 239, 97, 76, 0)
s = 145: (0, 13, 65, 30, 18, 52, 65, 26, 120, 53, 79, 0)
s = 146: (0, 16, 65, 24, 22, 45, 61, 26, 257, 113, 37, 0)
s = 147: (0, 16, 52, 15, 17, 88, 89, 21, 97, 76, 69, 0)
s = 148: (0, 12, 45, 17, 16, 51, 95, 24, 97, 47, 51, 0)
s = 149: (0, 12, 48, 21, 30, 36, 81, 19, 170, 74, 80, 0)
s = 150: (0, 26, 44, 22, 20, 57, 67, 21, 172, 89, 45, 0)
s = 151: (0, 21, 66, 19, 18, 50, 125, 23, 146, 81, 83, 0)
s = 152: (0, 14, 41, 16, 18, 48, 121, 23, 118, 57, 44, 0)
s = 153: (0, 15, 57, 26, 12, 47, 114, 19, 146, 70, 70, 0)
s = 154: (0, 26, 72, 21, 23, 66, 99, 26, 146, 59, 73, 0)
s = 155: (0, 11, 52, 18, 23, 57, 68, 24, 175, 93, 62, 0)
s = 156: (0, 16, 53, 16, 13, 40, 89, 16, 250, 64, 73, 0)
s = 157: (0, 21, 49, 17, 15, 62, 81, 22, 150, 60, 54, 0)
s = 158: (0, 24, 46, 23, 24, 52, 84, 22, 153, 90, 67, 0)
s = 159: (0, 13, 32, 28, 14, 72, 62, 15, 130, 125, 63, 0)
s = 160: (0, 12, 48, 35, 24, 64, 76, 22, 105, 103, 63, 0)
s = 161: (0, 17, 80, 20, 20, 87, 60, 14, 146, 80, 73, 0)
s = 162: (0, 10, 55, 20, 21, 77, 123, 26, 224, 61, 114, 0)
s = 163: (0, 13, 43, 22, 16, 49, 88, 18, 149, 58, 56, 0)
s = 164: (0, 18, 54, 18, 11, 51, 81, 20, 193, 56, 65, 0)
s = 165: (0, 16, 47, 23, 19, 50, 121, 20, 156, 68, 71, 0)
s = 166: (0, 16, 36, 23, 19, 66, 62, 31, 145, 121, 64, 0)
s = 167: (0, 13, 40, 29, 13, 68, 80, 18, 133, 58, 40, 0)
s = 168: (0, 11, 86, 20, 13, 59, 98, 26, 198, 140, 109, 0)
s = 169: (0, 18, 34, 27, 12, 41, 116, 18, 179, 107, 58, 0)
s = 170: (0, 16, 35, 20, 27, 64, 103, 24, 191, 55, 79, 0)
s = 171: (0, 14, 53, 32, 16, 73, 95, 23, 104, 89, 68, 0)
s = 172: (0, 17, 44, 36, 26, 37, 68, 25, 164, 79, 48, 0)
s = 173: (0, 15, 61, 21, 23, 75, 94, 21, 215, 112, 36, 0)
s = 174: (0, 14, 59, 31, 23, 54, 127, 16, 164, 88, 123, 0)
s = 175: (0, 20, 44, 19, 17, 43, 96, 26, 197, 96, 61, 0)
s = 176: (0, 24, 52, 14, 14, 46, 106, 19, 178, 67, 82, 0)
s = 177: (0, 14, 41, 29, 23, 72, 91, 33, 120, 72, 43, 0)
s = 178: (0, 19, 39, 16, 15, 57, 105, 24, 191, 71, 59, 0)
s = 179: (0, 17, 60, 20, 16, 61, 119, 37, 168, 79, 58, 0)
s = 180: (0, 12, 46, 32, 17, 42, 93, 17, 116, 61, 65, 0)
s = 181: (0, 17, 44, 19, 18, 47, 65, 18, 121, 57, 72, 0)
s = 182: (0, 23, 47, 20, 22, 48, 107, 14, 134, 131, 86, 0)
s = 183: (0, 18, 34, 25, 14, 78, 103, 18, 173, 73, 47, 0)
s = 184: (0, 23, 65, 19, 14, 51, 103, 18, 182, 96, 62, 0)
s = 185: (0, 17, 44, 23, 14, 45, 87, 16, 93, 168, 66, 0)
s = 186: (0, 19, 56, 20, 19, 75, 63, 18, 170, 86, 97, 0)
s = 187: (0, 14, 66, 37, 10, 57, 63, 18, 96, 76, 81, 0)
s = 188: (0, 21, 30, 23, 18, 58, 129, 31, 129, 83, 72, 0)
s = 189: (0, 15, 61, 29, 13, 67, 94, 34, 250, 66, 36, 0)
s = 190: (0, 20, 40, 30, 10, 75, 62, 22, 197, 109, 47, 0)
s = 191: (0, 16, 45, 18, 12, 85, 105, 38, 122, 95, 91, 0)
s = 192: (0, 17, 75, 30, 19, 41, 68, 16, 233, 73, 57, 0)
s = 193: (0, 19, 58, 15, 13, 34, 70, 27, 225, 96, 58, 0)
s = 194: (0, 14, 92, 20, 14, 39, 62, 24, 217, 75, 61, 0)
s = 195: (0, 25, 52, 18, 17, 37, 74, 27, 237, 122, 58, 0)
s = 196: (0, 15, 35, 24, 22, 54, 71, 16, 202, 139, 104, 0)
s = 197: (0, 13, 59, 17, 28, 38, 78, 28, 157, 151, 51, 0)
s = 198: (0, 15, 69, 25, 12, 61, 99, 19, 122, 83, 72, 0)
s = 199: (0, 13, 34, 28, 15, 45, 121, 40, 106, 75, 72, 0)
s = 200: (0, 15, 41, 15, 18, 47, 48, 16, 125, 127, 67, 0)
************************************************************************
ES/LS-VALUES:
jobnr.   ES(i)    LS(i)
------------------------------------------------------------------------
  0        0        0
  1        0       71
  2        0       53
  3        0       57
  4        3       57
  5        4       59
  6        9       65
  7        9       71
  8        3       69
  9        3       71
 10       16       73
 11       21       79
************************************************************************
BIG-M-VALUES:
M1 = 20, M2 = 269
************************************************************************
